GLPSOL: GLPK LP/MIP Solver 4.38
Reading model section from /tmp/temp-10.mod...
374 lines were read
Reading data section from /tmp/temp-10.dat...
2236 lines were read
Generating OBJECTIVE...
Generating EQ_OBJINV...
Generating EQ_OBJFIX...
Generating EQ_OBJVAR...
Generating EQ_OBJSAL...
Generating EQ_COMBAL...
Generating EQ_CAPACT...
Generating EQ_PTRANS...
Generating EQ_SHR_LO...
Generating EQ_SHR_UP...
Generating EQ_SHR_FX...
Generating EQ_PEAK...
Generating EQ_ACT_LO...
Generating EQ_ACT_UP...
Generating EQ_ACT_FX...
Generating EQ_IMP_LO...
Generating EQ_IMP_UP...
Generating EQ_IMP_FX...
Generating EQ_EXP_LO...
Generating EQ_EXP_UP...
Generating EQ_EXP_FX...
Generating EQ_FLO_LO...
Generating EQ_FLO_UP...
Generating EQ_FLO_FX...
Generating EQ_ICAP_LO...
Generating EQ_ICAP_UP...
Generating EQ_ICAP_FX...
Generating EQ_CAP_LO...
Generating EQ_CAP_UP...
Generating EQ_CAP_FX...
Generating EQ_COM_NET_UP_TS...
Generating EQ_COM_NET_UP_T...
Model has been successfully generated
glp_simplex: original LP has 96602 rows, 92214 columns, 412234 non-zeros
glp_simplex: presolved LP has 21726 rows, 20554 columns, 79590 non-zeros
Scaling...
 A: min|aij| =  5.498e-10  max|aij| =  4.187e+03  ratio =  7.616e+12
GM: min|aij| =  1.454e-01  max|aij| =  6.876e+00  ratio =  4.728e+01
EQ: min|aij| =  2.115e-02  max|aij| =  1.000e+00  ratio =  4.728e+01
Crashing...
Size of triangular part = 21114
      0: obj =   2.355761743e+09  infeas =  8.477e+02 (612)
    200: obj =   2.852251076e+09  infeas =  6.382e+01 (598)
    400: obj =   1.070850461e+14  infeas =  2.817e+01 (573)
    600: obj =   4.663317126e+14  infeas =  7.427e+00 (563)
*   690: obj =   7.449986073e+14  infeas =  6.426e-08 (560)
*   765: obj =   6.007119008e+14  infeas =  6.426e-08 (552)
OPTIMAL SOLUTION FOUND
Time used:   1.3 secs
Memory used: 193.9 Mb (203273153 bytes)
Model has been successfully processed
ENDSOLVER
